NAME : ftv33Preorder.814.tour
COMMENT : Length = 814
COMMENT : Found by LKH [Keld Helsgaun] Sun Apr 19 19:25:39 2020
TYPE : TOUR
DIMENSION : 34
TOUR_SECTION
1
14
13
15
16
17
2
26
25
24
27
28
29
30
23
21
22
32
19
20
18
12
9
11
10
33
8
5
7
6
31
34
3
4
-1
EOF
